c nIsolatedPIs 4
c maxPI 131
p cnf 744 1840
c gate 132 -45 126 0
-45 -132 0
126 -132 0
45 -126 132 0
c gate 133 -47 -126 0
-47 -133 0
-126 -133 0
47 126 133 0
c gate 134 125 -133 0
125 -134 0
-133 -134 0
-125 133 134 0
c gate 135 -132 134 0
-132 -135 0
134 -135 0
132 -134 135 0
c gate 136 -46 126 0
-46 -136 0
126 -136 0
46 -126 136 0
c gate 137 -48 -126 0
-48 -137 0
-126 -137 0
48 126 137 0
c gate 138 -125 -137 0
-125 -138 0
-137 -138 0
125 137 138 0
c gate 139 -136 138 0
-136 -139 0
138 -139 0
136 -138 139 0
c gate 140 -135 -139 0
-135 -140 0
-139 -140 0
135 139 140 0
c gate 141 128 140 0
128 -141 0
140 -141 0
-128 -140 141 0
c gate 142 -54 126 0
-54 -142 0
126 -142 0
54 -126 142 0
c gate 143 -56 -126 0
-56 -143 0
-126 -143 0
56 126 143 0
c gate 144 -125 -143 0
-125 -144 0
-143 -144 0
125 143 144 0
c gate 145 -142 144 0
-142 -145 0
144 -145 0
142 -144 145 0
c gate 146 -53 126 0
-53 -146 0
126 -146 0
53 -126 146 0
c gate 147 -55 -126 0
-55 -147 0
-126 -147 0
55 126 147 0
c gate 148 125 -147 0
125 -148 0
-147 -148 0
-125 147 148 0
c gate 149 -146 148 0
-146 -149 0
148 -149 0
146 -148 149 0
c gate 150 -128 -149 0
-128 -150 0
-149 -150 0
128 149 150 0
c gate 151 -145 150 0
-145 -151 0
150 -151 0
145 -150 151 0
c gate 152 -127 -151 0
-127 -152 0
-151 -152 0
127 151 152 0
c gate 153 -141 152 0
-141 -153 0
152 -153 0
141 -152 153 0
c gate 154 -41 126 0
-41 -154 0
126 -154 0
41 -126 154 0
c gate 155 -43 -126 0
-43 -155 0
-126 -155 0
43 126 155 0
c gate 156 125 -155 0
125 -156 0
-155 -156 0
-125 155 156 0
c gate 157 -154 156 0
-154 -157 0
156 -157 0
154 -156 157 0
c gate 158 -42 126 0
-42 -158 0
126 -158 0
42 -126 158 0
c gate 159 -44 -126 0
-44 -159 0
-126 -159 0
44 126 159 0
c gate 160 -125 -159 0
-125 -160 0
-159 -160 0
125 159 160 0
c gate 161 -158 160 0
-158 -161 0
160 -161 0
158 -160 161 0
c gate 162 -157 -161 0
-157 -162 0
-161 -162 0
157 161 162 0
c gate 163 128 162 0
128 -163 0
162 -163 0
-128 -162 163 0
c gate 164 -50 126 0
-50 -164 0
126 -164 0
50 -126 164 0
c gate 165 -52 -126 0
-52 -165 0
-126 -165 0
52 126 165 0
c gate 166 -125 -165 0
-125 -166 0
-165 -166 0
125 165 166 0
c gate 167 -164 166 0
-164 -167 0
166 -167 0
164 -166 167 0
c gate 168 -49 126 0
-49 -168 0
126 -168 0
49 -126 168 0
c gate 169 -51 -126 0
-51 -169 0
-126 -169 0
51 126 169 0
c gate 170 125 -169 0
125 -170 0
-169 -170 0
-125 169 170 0
c gate 171 -168 170 0
-168 -171 0
170 -171 0
168 -170 171 0
c gate 172 -128 -171 0
-128 -172 0
-171 -172 0
128 171 172 0
c gate 173 -167 172 0
-167 -173 0
172 -173 0
167 -172 173 0
c gate 174 127 -173 0
127 -174 0
-173 -174 0
-127 173 174 0
c gate 175 -163 174 0
-163 -175 0
174 -175 0
163 -174 175 0
c gate 176 -153 -175 0
-153 -176 0
-175 -176 0
153 175 176 0
c gate 177 -130 -176 0
-130 -177 0
-176 -177 0
130 176 177 0
c gate 178 12 -126 0
12 -178 0
-126 -178 0
-12 126 178 0
c gate 179 10 126 0
10 -179 0
126 -179 0
-10 -126 179 0
c gate 180 -125 -179 0
-125 -180 0
-179 -180 0
125 179 180 0
c gate 181 -178 180 0
-178 -181 0
180 -181 0
178 -180 181 0
c gate 182 11 -126 0
11 -182 0
-126 -182 0
-11 126 182 0
c gate 183 9 126 0
9 -183 0
126 -183 0
-9 -126 183 0
c gate 184 125 -183 0
125 -184 0
-183 -184 0
-125 183 184 0
c gate 185 -182 184 0
-182 -185 0
184 -185 0
182 -184 185 0
c gate 186 -181 -185 0
-181 -186 0
-185 -186 0
181 185 186 0
c gate 187 128 -186 0
128 -187 0
-186 -187 0
-128 186 187 0
c gate 188 19 -126 0
19 -188 0
-126 -188 0
-19 126 188 0
c gate 189 17 126 0
17 -189 0
126 -189 0
-17 -126 189 0
c gate 190 125 -189 0
125 -190 0
-189 -190 0
-125 189 190 0
c gate 191 -188 190 0
-188 -191 0
190 -191 0
188 -190 191 0
c gate 192 20 -126 0
20 -192 0
-126 -192 0
-20 126 192 0
c gate 193 18 126 0
18 -193 0
126 -193 0
-18 -126 193 0
c gate 194 -125 -193 0
-125 -194 0
-193 -194 0
125 193 194 0
c gate 195 -192 194 0
-192 -195 0
194 -195 0
192 -194 195 0
c gate 196 -191 -195 0
-191 -196 0
-195 -196 0
191 195 196 0
c gate 197 -128 -196 0
-128 -197 0
-196 -197 0
128 196 197 0
c gate 198 127 -197 0
127 -198 0
-197 -198 0
-127 197 198 0
c gate 199 -187 198 0
-187 -199 0
198 -199 0
187 -198 199 0
c gate 200 16 -126 0
16 -200 0
-126 -200 0
-16 126 200 0
c gate 201 14 126 0
14 -201 0
126 -201 0
-14 -126 201 0
c gate 202 -125 -201 0
-125 -202 0
-201 -202 0
125 201 202 0
c gate 203 -200 202 0
-200 -203 0
202 -203 0
200 -202 203 0
c gate 204 15 -126 0
15 -204 0
-126 -204 0
-15 126 204 0
c gate 205 13 126 0
13 -205 0
126 -205 0
-13 -126 205 0
c gate 206 125 -205 0
125 -206 0
-205 -206 0
-125 205 206 0
c gate 207 -204 206 0
-204 -207 0
206 -207 0
204 -206 207 0
c gate 208 -203 -207 0
-203 -208 0
-207 -208 0
203 207 208 0
c gate 209 128 -208 0
128 -209 0
-208 -209 0
-128 208 209 0
c gate 210 23 -126 0
23 -210 0
-126 -210 0
-23 126 210 0
c gate 211 21 126 0
21 -211 0
126 -211 0
-21 -126 211 0
c gate 212 125 -211 0
125 -212 0
-211 -212 0
-125 211 212 0
c gate 213 -210 212 0
-210 -213 0
212 -213 0
210 -212 213 0
c gate 214 24 -126 0
24 -214 0
-126 -214 0
-24 126 214 0
c gate 215 22 126 0
22 -215 0
126 -215 0
-22 -126 215 0
c gate 216 -125 -215 0
-125 -216 0
-215 -216 0
125 215 216 0
c gate 217 -214 216 0
-214 -217 0
216 -217 0
214 -216 217 0
c gate 218 -213 -217 0
-213 -218 0
-217 -218 0
213 217 218 0
c gate 219 -128 -218 0
-128 -219 0
-218 -219 0
128 218 219 0
c gate 220 -127 -219 0
-127 -220 0
-219 -220 0
127 219 220 0
c gate 221 -209 220 0
-209 -221 0
220 -221 0
209 -220 221 0
c gate 222 -199 -221 0
-199 -222 0
-221 -222 0
199 221 222 0
c gate 223 130 -222 0
130 -223 0
-222 -223 0
-130 222 223 0
c gate 224 -177 -223 0
-177 -224 0
-223 -224 0
177 223 224 0
c gate 225 129 -224 0
129 -225 0
-224 -225 0
-129 224 225 0
c gate 226 131 225 0
131 -226 0
225 -226 0
-131 -225 226 0
c gate 227 -72 126 0
-72 -227 0
126 -227 0
72 -126 227 0
c gate 228 -74 -126 0
-74 -228 0
-126 -228 0
74 126 228 0
c gate 229 -227 -228 0
-227 -229 0
-228 -229 0
227 228 229 0
c gate 230 125 229 0
125 -230 0
229 -230 0
-125 -229 230 0
c gate 231 -75 -126 0
-75 -231 0
-126 -231 0
75 126 231 0
c gate 232 -73 126 0
-73 -232 0
126 -232 0
73 -126 232 0
c gate 233 -231 -232 0
-231 -233 0
-232 -233 0
231 232 233 0
c gate 234 -125 233 0
-125 -234 0
233 -234 0
125 -233 234 0
c gate 235 -128 -234 0
-128 -235 0
-234 -235 0
128 234 235 0
c gate 236 -230 235 0
-230 -236 0
235 -236 0
230 -235 236 0
c gate 237 -64 126 0
-64 -237 0
126 -237 0
64 -126 237 0
c gate 238 -66 -126 0
-66 -238 0
-126 -238 0
66 126 238 0
c gate 239 -237 -238 0
-237 -239 0
-238 -239 0
237 238 239 0
c gate 240 125 239 0
125 -240 0
239 -240 0
-125 -239 240 0
c gate 241 -67 -126 0
-67 -241 0
-126 -241 0
67 126 241 0
c gate 242 -65 126 0
-65 -242 0
126 -242 0
65 -126 242 0
c gate 243 -241 -242 0
-241 -243 0
-242 -243 0
241 242 243 0
c gate 244 -125 243 0
-125 -244 0
243 -244 0
125 -243 244 0
c gate 245 128 -244 0
128 -245 0
-244 -245 0
-128 244 245 0
c gate 246 -240 245 0
-240 -246 0
245 -246 0
240 -245 246 0
c gate 247 -236 -246 0
-236 -247 0
-246 -247 0
236 246 247 0
c gate 248 127 -247 0
127 -248 0
-247 -248 0
-127 247 248 0
c gate 249 -68 126 0
-68 -249 0
126 -249 0
68 -126 249 0
c gate 250 -70 -126 0
-70 -250 0
-126 -250 0
70 126 250 0
c gate 251 -249 -250 0
-249 -251 0
-250 -251 0
249 250 251 0
c gate 252 125 251 0
125 -252 0
251 -252 0
-125 -251 252 0
c gate 253 -71 -126 0
-71 -253 0
-126 -253 0
71 126 253 0
c gate 254 -69 126 0
-69 -254 0
126 -254 0
69 -126 254 0
c gate 255 -253 -254 0
-253 -255 0
-254 -255 0
253 254 255 0
c gate 256 -125 255 0
-125 -256 0
255 -256 0
125 -255 256 0
c gate 257 128 -256 0
128 -257 0
-256 -257 0
-128 256 257 0
c gate 258 -252 257 0
-252 -258 0
257 -258 0
252 -257 258 0
c gate 259 -76 126 0
-76 -259 0
126 -259 0
76 -126 259 0
c gate 260 -78 -126 0
-78 -260 0
-126 -260 0
78 126 260 0
c gate 261 -259 -260 0
-259 -261 0
-260 -261 0
259 260 261 0
c gate 262 125 261 0
125 -262 0
261 -262 0
-125 -261 262 0
c gate 263 -79 -126 0
-79 -263 0
-126 -263 0
79 126 263 0
c gate 264 -77 126 0
-77 -264 0
126 -264 0
77 -126 264 0
c gate 265 -263 -264 0
-263 -265 0
-264 -265 0
263 264 265 0
c gate 266 -125 265 0
-125 -266 0
265 -266 0
125 -265 266 0
c gate 267 -128 -266 0
-128 -267 0
-266 -267 0
128 266 267 0
c gate 268 -262 267 0
-262 -268 0
267 -268 0
262 -267 268 0
c gate 269 -258 -268 0
-258 -269 0
-268 -269 0
258 268 269 0
c gate 270 -127 -269 0
-127 -270 0
-269 -270 0
127 269 270 0
c gate 271 130 -270 0
130 -271 0
-270 -271 0
-130 270 271 0
c gate 272 -248 271 0
-248 -272 0
271 -272 0
248 -271 272 0
c gate 273 -100 126 0
-100 -273 0
126 -273 0
100 -126 273 0
c gate 274 -102 -126 0
-102 -274 0
-126 -274 0
102 126 274 0
c gate 275 -273 -274 0
-273 -275 0
-274 -275 0
273 274 275 0
c gate 276 125 275 0
125 -276 0
275 -276 0
-125 -275 276 0
c gate 277 -103 -126 0
-103 -277 0
-126 -277 0
103 126 277 0
c gate 278 -101 126 0
-101 -278 0
126 -278 0
101 -126 278 0
c gate 279 -125 -278 0
-125 -279 0
-278 -279 0
125 278 279 0
c gate 280 -277 279 0
-277 -280 0
279 -280 0
277 -279 280 0
c gate 281 128 -280 0
128 -281 0
-280 -281 0
-128 280 281 0
c gate 282 -276 281 0
-276 -282 0
281 -282 0
276 -281 282 0
c gate 283 -109 126 0
-109 -283 0
126 -283 0
109 -126 283 0
c gate 284 -111 -126 0
-111 -284 0
-126 -284 0
111 126 284 0
c gate 285 -125 -284 0
-125 -285 0
-284 -285 0
125 284 285 0
c gate 286 -283 285 0
-283 -286 0
285 -286 0
283 -285 286 0
c gate 287 -108 126 0
-108 -287 0
126 -287 0
108 -126 287 0
c gate 288 -110 -126 0
-110 -288 0
-126 -288 0
110 126 288 0
c gate 289 125 -288 0
125 -289 0
-288 -289 0
-125 288 289 0
c gate 290 -287 289 0
-287 -290 0
289 -290 0
287 -289 290 0
c gate 291 -128 -290 0
-128 -291 0
-290 -291 0
128 290 291 0
c gate 292 -286 291 0
-286 -292 0
291 -292 0
286 -291 292 0
c gate 293 -127 -292 0
-127 -293 0
-292 -293 0
127 292 293 0
c gate 294 -282 293 0
-282 -294 0
293 -294 0
282 -293 294 0
c gate 295 -96 126 0
-96 -295 0
126 -295 0
96 -126 295 0
c gate 296 -98 -126 0
-98 -296 0
-126 -296 0
98 126 296 0
c gate 297 -295 -296 0
-295 -297 0
-296 -297 0
295 296 297 0
c gate 298 125 297 0
125 -298 0
297 -298 0
-125 -297 298 0
c gate 299 -99 -126 0
-99 -299 0
-126 -299 0
99 126 299 0
c gate 300 -97 126 0
-97 -300 0
126 -300 0
97 -126 300 0
c gate 301 -125 -300 0
-125 -301 0
-300 -301 0
125 300 301 0
c gate 302 -299 301 0
-299 -302 0
301 -302 0
299 -301 302 0
c gate 303 128 -302 0
128 -303 0
-302 -303 0
-128 302 303 0
c gate 304 -298 303 0
-298 -304 0
303 -304 0
298 -303 304 0
c gate 305 -105 126 0
-105 -305 0
126 -305 0
105 -126 305 0
c gate 306 -107 -126 0
-107 -306 0
-126 -306 0
107 126 306 0
c gate 307 -125 -306 0
-125 -307 0
-306 -307 0
125 306 307 0
c gate 308 -305 307 0
-305 -308 0
307 -308 0
305 -307 308 0
c gate 309 -104 126 0
-104 -309 0
126 -309 0
104 -126 309 0
c gate 310 -106 -126 0
-106 -310 0
-126 -310 0
106 126 310 0
c gate 311 125 -310 0
125 -311 0
-310 -311 0
-125 310 311 0
c gate 312 -309 311 0
-309 -312 0
311 -312 0
309 -311 312 0
c gate 313 -128 -312 0
-128 -313 0
-312 -313 0
128 312 313 0
c gate 314 -308 313 0
-308 -314 0
313 -314 0
308 -313 314 0
c gate 315 127 -314 0
127 -315 0
-314 -315 0
-127 314 315 0
c gate 316 -304 315 0
-304 -316 0
315 -316 0
304 -315 316 0
c gate 317 -294 -316 0
-294 -317 0
-316 -317 0
294 316 317 0
c gate 318 -130 -317 0
-130 -318 0
-317 -318 0
130 317 318 0
c gate 319 129 -318 0
129 -319 0
-318 -319 0
-129 318 319 0
c gate 320 -272 319 0
-272 -320 0
319 -320 0
272 -319 320 0
c gate 321 -131 320 0
-131 -321 0
320 -321 0
131 -320 321 0
c gate 322 -97 -126 0
-97 -322 0
-126 -322 0
97 126 322 0
c gate 323 -95 126 0
-95 -323 0
126 -323 0
95 -126 323 0
c gate 324 -322 -323 0
-322 -324 0
-323 -324 0
322 323 324 0
c gate 325 125 324 0
125 -325 0
324 -325 0
-125 -324 325 0
c gate 326 -125 297 0
-125 -326 0
297 -326 0
125 -297 326 0
c gate 327 -128 -326 0
-128 -327 0
-326 -327 0
128 326 327 0
c gate 328 -325 327 0
-325 -328 0
327 -328 0
325 -327 328 0
c gate 329 -89 -126 0
-89 -329 0
-126 -329 0
89 126 329 0
c gate 330 -87 126 0
-87 -330 0
126 -330 0
87 -126 330 0
c gate 331 -329 -330 0
-329 -331 0
-330 -331 0
329 330 331 0
c gate 332 125 331 0
125 -332 0
331 -332 0
-125 -331 332 0
c gate 333 -90 -126 0
-90 -333 0
-126 -333 0
90 126 333 0
c gate 334 -88 126 0
-88 -334 0
126 -334 0
88 -126 334 0
c gate 335 -125 -334 0
-125 -335 0
-334 -335 0
125 334 335 0
c gate 336 -333 335 0
-333 -336 0
335 -336 0
333 -335 336 0
c gate 337 128 -336 0
128 -337 0
-336 -337 0
-128 336 337 0
c gate 338 -332 337 0
-332 -338 0
337 -338 0
332 -337 338 0
c gate 339 -328 -338 0
-328 -339 0
-338 -339 0
328 338 339 0
c gate 340 127 -339 0
127 -340 0
-339 -340 0
-127 339 340 0
c gate 341 -93 -126 0
-93 -341 0
-126 -341 0
93 126 341 0
c gate 342 -91 126 0
-91 -342 0
126 -342 0
91 -126 342 0
c gate 343 -341 -342 0
-341 -343 0
-342 -343 0
341 342 343 0
c gate 344 125 343 0
125 -344 0
343 -344 0
-125 -343 344 0
c gate 345 -94 -126 0
-94 -345 0
-126 -345 0
94 126 345 0
c gate 346 -92 126 0
-92 -346 0
126 -346 0
92 -126 346 0
c gate 347 -125 -346 0
-125 -347 0
-346 -347 0
125 346 347 0
c gate 348 -345 347 0
-345 -348 0
347 -348 0
345 -347 348 0
c gate 349 128 -348 0
128 -349 0
-348 -349 0
-128 348 349 0
c gate 350 -344 349 0
-344 -350 0
349 -350 0
344 -349 350 0
c gate 351 -99 126 0
-99 -351 0
126 -351 0
99 -126 351 0
c gate 352 -101 -126 0
-101 -352 0
-126 -352 0
101 126 352 0
c gate 353 125 -352 0
125 -353 0
-352 -353 0
-125 352 353 0
c gate 354 -351 353 0
-351 -354 0
353 -354 0
351 -353 354 0
c gate 355 -125 275 0
-125 -355 0
275 -355 0
125 -275 355 0
c gate 356 -128 -355 0
-128 -356 0
-355 -356 0
128 355 356 0
c gate 357 -354 356 0
-354 -357 0
356 -357 0
354 -356 357 0
c gate 358 -350 -357 0
-350 -358 0
-357 -358 0
350 357 358 0
c gate 359 -127 -358 0
-127 -359 0
-358 -359 0
127 358 359 0
c gate 360 130 -359 0
130 -360 0
-359 -360 0
-130 359 360 0
c gate 361 -340 360 0
-340 -361 0
360 -361 0
340 -360 361 0
c gate 362 -119 -126 0
-119 -362 0
-126 -362 0
119 126 362 0
c gate 363 -117 126 0
-117 -363 0
126 -363 0
117 -126 363 0
c gate 364 -362 -363 0
-362 -364 0
-363 -364 0
362 363 364 0
c gate 365 125 364 0
125 -365 0
364 -365 0
-125 -364 365 0
c gate 366 -120 -126 0
-120 -366 0
-126 -366 0
120 126 366 0
c gate 367 -118 126 0
-118 -367 0
126 -367 0
118 -126 367 0
c gate 368 -125 -367 0
-125 -368 0
-367 -368 0
125 367 368 0
c gate 369 -366 368 0
-366 -369 0
368 -369 0
366 -368 369 0
c gate 370 128 -369 0
128 -370 0
-369 -370 0
-128 369 370 0
c gate 371 -365 370 0
-365 -371 0
370 -371 0
365 -370 371 0
c gate 372 -3 -126 0
-3 -372 0
-126 -372 0
3 126 372 0
c gate 373 -1 126 0
-1 -373 0
126 -373 0
1 -126 373 0
c gate 374 -372 -373 0
-372 -374 0
-373 -374 0
372 373 374 0
c gate 375 125 374 0
125 -375 0
374 -375 0
-125 -374 375 0
c gate 376 -4 -126 0
-4 -376 0
-126 -376 0
4 126 376 0
c gate 377 -2 126 0
-2 -377 0
126 -377 0
2 -126 377 0
c gate 378 -125 -377 0
-125 -378 0
-377 -378 0
125 377 378 0
c gate 379 -376 378 0
-376 -379 0
378 -379 0
376 -378 379 0
c gate 380 -128 -379 0
-128 -380 0
-379 -380 0
128 379 380 0
c gate 381 -375 380 0
-375 -381 0
380 -381 0
375 -380 381 0
c gate 382 127 -381 0
127 -382 0
-381 -382 0
-127 381 382 0
c gate 383 -371 382 0
-371 -383 0
382 -383 0
371 -382 383 0
c gate 384 -123 -126 0
-123 -384 0
-126 -384 0
123 126 384 0
c gate 385 -121 126 0
-121 -385 0
126 -385 0
121 -126 385 0
c gate 386 -384 -385 0
-384 -386 0
-385 -386 0
384 385 386 0
c gate 387 125 386 0
125 -387 0
386 -387 0
-125 -386 387 0
c gate 388 -124 -126 0
-124 -388 0
-126 -388 0
124 126 388 0
c gate 389 -122 126 0
-122 -389 0
126 -389 0
122 -126 389 0
c gate 390 -125 -389 0
-125 -390 0
-389 -390 0
125 389 390 0
c gate 391 -388 390 0
-388 -391 0
390 -391 0
388 -390 391 0
c gate 392 128 -391 0
128 -392 0
-391 -392 0
-128 391 392 0
c gate 393 -387 392 0
-387 -393 0
392 -393 0
387 -392 393 0
c gate 394 -6 126 0
-6 -394 0
126 -394 0
6 -126 394 0
c gate 395 -8 -126 0
-8 -395 0
-126 -395 0
8 126 395 0
c gate 396 -125 -395 0
-125 -396 0
-395 -396 0
125 395 396 0
c gate 397 -394 396 0
-394 -397 0
396 -397 0
394 -396 397 0
c gate 398 -5 126 0
-5 -398 0
126 -398 0
5 -126 398 0
c gate 399 -7 -126 0
-7 -399 0
-126 -399 0
7 126 399 0
c gate 400 125 -399 0
125 -400 0
-399 -400 0
-125 399 400 0
c gate 401 -398 400 0
-398 -401 0
400 -401 0
398 -400 401 0
c gate 402 -128 -401 0
-128 -402 0
-401 -402 0
128 401 402 0
c gate 403 -397 402 0
-397 -403 0
402 -403 0
397 -402 403 0
c gate 404 -127 -403 0
-127 -404 0
-403 -404 0
127 403 404 0
c gate 405 -393 404 0
-393 -405 0
404 -405 0
393 -404 405 0
c gate 406 -383 -405 0
-383 -406 0
-405 -406 0
383 405 406 0
c gate 407 -130 -406 0
-130 -407 0
-406 -407 0
130 406 407 0
c gate 408 129 -407 0
129 -408 0
-407 -408 0
-129 407 408 0
c gate 409 -361 408 0
-361 -409 0
408 -409 0
361 -408 409 0
c gate 410 131 409 0
131 -410 0
409 -410 0
-131 -409 410 0
c gate 411 -38 126 0
-38 -411 0
126 -411 0
38 -126 411 0
c gate 412 -40 -126 0
-40 -412 0
-126 -412 0
40 126 412 0
c gate 413 -125 -412 0
-125 -413 0
-412 -413 0
125 412 413 0
c gate 414 -411 413 0
-411 -414 0
413 -414 0
411 -413 414 0
c gate 415 -37 126 0
-37 -415 0
126 -415 0
37 -126 415 0
c gate 416 -39 -126 0
-39 -416 0
-126 -416 0
39 126 416 0
c gate 417 125 -416 0
125 -417 0
-416 -417 0
-125 416 417 0
c gate 418 -415 417 0
-415 -418 0
417 -418 0
415 -417 418 0
c gate 419 128 -418 0
128 -419 0
-418 -419 0
-128 418 419 0
c gate 420 -414 419 0
-414 -420 0
419 -420 0
414 -419 420 0
c gate 421 -128 140 0
-128 -421 0
140 -421 0
128 -140 421 0
c gate 422 -127 -421 0
-127 -422 0
-421 -422 0
127 421 422 0
c gate 423 -420 422 0
-420 -423 0
422 -423 0
420 -422 423 0
c gate 424 -34 126 0
-34 -424 0
126 -424 0
34 -126 424 0
c gate 425 -36 -126 0
-36 -425 0
-126 -425 0
36 126 425 0
c gate 426 -125 -425 0
-125 -426 0
-425 -426 0
125 425 426 0
c gate 427 -424 426 0
-424 -427 0
426 -427 0
424 -426 427 0
c gate 428 -33 126 0
-33 -428 0
126 -428 0
33 -126 428 0
c gate 429 -35 -126 0
-35 -429 0
-126 -429 0
35 126 429 0
c gate 430 125 -429 0
125 -430 0
-429 -430 0
-125 429 430 0
c gate 431 -428 430 0
-428 -431 0
430 -431 0
428 -430 431 0
c gate 432 128 -431 0
128 -432 0
-431 -432 0
-128 431 432 0
c gate 433 -427 432 0
-427 -433 0
432 -433 0
427 -432 433 0
c gate 434 -128 162 0
-128 -434 0
162 -434 0
128 -162 434 0
c gate 435 127 -434 0
127 -435 0
-434 -435 0
-127 434 435 0
c gate 436 -433 435 0
-433 -436 0
435 -436 0
433 -435 436 0
c gate 437 -423 -436 0
-423 -437 0
-436 -437 0
423 436 437 0
c gate 438 130 -437 0
130 -438 0
-437 -438 0
-130 437 438 0
c gate 439 125 243 0
125 -439 0
243 -439 0
-125 -243 439 0
c gate 440 -66 126 0
-66 -440 0
126 -440 0
66 -126 440 0
c gate 441 -68 -126 0
-68 -441 0
-126 -441 0
68 126 441 0
c gate 442 -125 -441 0
-125 -442 0
-441 -442 0
125 441 442 0
c gate 443 -440 442 0
-440 -443 0
442 -443 0
440 -442 443 0
c gate 444 128 -443 0
128 -444 0
-443 -444 0
-128 443 444 0
c gate 445 -439 444 0
-439 -445 0
444 -445 0
439 -444 445 0
c gate 446 125 233 0
125 -446 0
233 -446 0
-125 -233 446 0
c gate 447 -74 126 0
-74 -447 0
126 -447 0
74 -126 447 0
c gate 448 -76 -126 0
-76 -448 0
-126 -448 0
76 126 448 0
c gate 449 -125 -448 0
-125 -449 0
-448 -449 0
125 448 449 0
c gate 450 -447 449 0
-447 -450 0
449 -450 0
447 -449 450 0
c gate 451 -128 -450 0
-128 -451 0
-450 -451 0
128 450 451 0
c gate 452 -446 451 0
-446 -452 0
451 -452 0
446 -451 452 0
c gate 453 -445 -452 0
-445 -453 0
-452 -453 0
445 452 453 0
c gate 454 127 -453 0
127 -454 0
-453 -454 0
-127 453 454 0
c gate 455 125 265 0
125 -455 0
265 -455 0
-125 -265 455 0
c gate 456 -78 126 0
-78 -456 0
126 -456 0
78 -126 456 0
c gate 457 -80 -126 0
-80 -457 0
-126 -457 0
80 126 457 0
c gate 458 -125 -457 0
-125 -458 0
-457 -458 0
125 457 458 0
c gate 459 -456 458 0
-456 -459 0
458 -459 0
456 -458 459 0
c gate 460 -128 -459 0
-128 -460 0
-459 -460 0
128 459 460 0
c gate 461 -455 460 0
-455 -461 0
460 -461 0
455 -460 461 0
c gate 462 125 255 0
125 -462 0
255 -462 0
-125 -255 462 0
c gate 463 -70 126 0
-70 -463 0
126 -463 0
70 -126 463 0
c gate 464 -72 -126 0
-72 -464 0
-126 -464 0
72 126 464 0
c gate 465 -125 -464 0
-125 -465 0
-464 -465 0
125 464 465 0
c gate 466 -463 465 0
-463 -466 0
465 -466 0
463 -465 466 0
c gate 467 128 -466 0
128 -467 0
-466 -467 0
-128 466 467 0
c gate 468 -462 467 0
-462 -468 0
467 -468 0
462 -467 468 0
c gate 469 -461 -468 0
-461 -469 0
-468 -469 0
461 468 469 0
c gate 470 -127 -469 0
-127 -470 0
-469 -470 0
127 469 470 0
c gate 471 -130 -470 0
-130 -471 0
-470 -471 0
130 470 471 0
c gate 472 -454 471 0
-454 -472 0
471 -472 0
454 -471 472 0
c gate 473 -438 -472 0
-438 -473 0
-472 -473 0
438 472 473 0
c gate 474 129 -473 0
129 -474 0
-473 -474 0
-129 473 474 0
c gate 475 131 474 0
131 -475 0
474 -475 0
-131 -474 475 0
c gate 476 -67 126 0
-67 -476 0
126 -476 0
67 -126 476 0
c gate 477 -69 -126 0
-69 -477 0
-126 -477 0
69 126 477 0
c gate 478 125 -477 0
125 -478 0
-477 -478 0
-125 477 478 0
c gate 479 -476 478 0
-476 -479 0
478 -479 0
476 -478 479 0
c gate 480 -125 251 0
-125 -480 0
251 -480 0
125 -251 480 0
c gate 481 128 -480 0
128 -481 0
-480 -481 0
-128 480 481 0
c gate 482 -479 481 0
-479 -482 0
481 -482 0
479 -481 482 0
c gate 483 -75 126 0
-75 -483 0
126 -483 0
75 -126 483 0
c gate 484 -77 -126 0
-77 -484 0
-126 -484 0
77 126 484 0
c gate 485 125 -484 0
125 -485 0
-484 -485 0
-125 484 485 0
c gate 486 -483 485 0
-483 -486 0
485 -486 0
483 -485 486 0
c gate 487 -125 261 0
-125 -487 0
261 -487 0
125 -261 487 0
c gate 488 -128 -487 0
-128 -488 0
-487 -488 0
128 487 488 0
c gate 489 -486 488 0
-486 -489 0
488 -489 0
486 -488 489 0
c gate 490 127 -489 0
127 -490 0
-489 -490 0
-127 489 490 0
c gate 491 -482 490 0
-482 -491 0
490 -491 0
482 -490 491 0
c gate 492 -71 126 0
-71 -492 0
126 -492 0
71 -126 492 0
c gate 493 -73 -126 0
-73 -493 0
-126 -493 0
73 126 493 0
c gate 494 125 -493 0
125 -494 0
-493 -494 0
-125 493 494 0
c gate 495 -492 494 0
-492 -495 0
494 -495 0
492 -494 495 0
c gate 496 -125 229 0
-125 -496 0
229 -496 0
125 -229 496 0
c gate 497 128 -496 0
128 -497 0
-496 -497 0
-128 496 497 0
c gate 498 -495 497 0
-495 -498 0
497 -498 0
495 -497 498 0
c gate 499 -80 126 0
-80 -499 0
126 -499 0
80 -126 499 0
c gate 500 -82 -126 0
-82 -500 0
-126 -500 0
82 126 500 0
c gate 501 -125 -500 0
-125 -501 0
-500 -501 0
125 500 501 0
c gate 502 -499 501 0
-499 -502 0
501 -502 0
499 -501 502 0
c gate 503 -79 126 0
-79 -503 0
126 -503 0
79 -126 503 0
c gate 504 -81 -126 0
-81 -504 0
-126 -504 0
81 126 504 0
c gate 505 125 -504 0
125 -505 0
-504 -505 0
-125 504 505 0
c gate 506 -503 505 0
-503 -506 0
505 -506 0
503 -505 506 0
c gate 507 -128 -506 0
-128 -507 0
-506 -507 0
128 506 507 0
c gate 508 -502 507 0
-502 -508 0
507 -508 0
502 -507 508 0
c gate 509 -127 -508 0
-127 -509 0
-508 -509 0
127 508 509 0
c gate 510 -498 509 0
-498 -510 0
509 -510 0
498 -509 510 0
c gate 511 -130 -510 0
-130 -511 0
-510 -511 0
130 510 511 0
c gate 512 -491 511 0
-491 -512 0
511 -512 0
491 -511 512 0
c gate 513 49 -126 0
49 -513 0
-126 -513 0
-49 126 513 0
c gate 514 47 126 0
47 -514 0
126 -514 0
-47 -126 514 0
c gate 515 125 -514 0
125 -515 0
-514 -515 0
-125 514 515 0
c gate 516 -513 515 0
-513 -516 0
515 -516 0
513 -515 516 0
c gate 517 48 126 0
48 -517 0
126 -517 0
-48 -126 517 0
c gate 518 50 -126 0
50 -518 0
-126 -518 0
-50 126 518 0
c gate 519 -125 -518 0
-125 -519 0
-518 -519 0
125 518 519 0
c gate 520 -517 519 0
-517 -520 0
519 -520 0
517 -519 520 0
c gate 521 -128 -520 0
-128 -521 0
-520 -521 0
128 520 521 0
c gate 522 -516 521 0
-516 -522 0
521 -522 0
516 -521 522 0
c gate 523 42 -126 0
42 -523 0
-126 -523 0
-42 126 523 0
c gate 524 40 126 0
40 -524 0
126 -524 0
-40 -126 524 0
c gate 525 -125 -524 0
-125 -525 0
-524 -525 0
125 524 525 0
c gate 526 -523 525 0
-523 -526 0
525 -526 0
523 -525 526 0
c gate 527 39 126 0
39 -527 0
126 -527 0
-39 -126 527 0
c gate 528 41 -126 0
41 -528 0
-126 -528 0
-41 126 528 0
c gate 529 125 -528 0
125 -529 0
-528 -529 0
-125 528 529 0
c gate 530 -527 529 0
-527 -530 0
529 -530 0
527 -529 530 0
c gate 531 128 -530 0
128 -531 0
-530 -531 0
-128 530 531 0
c gate 532 -526 531 0
-526 -532 0
531 -532 0
526 -531 532 0
c gate 533 -127 -532 0
-127 -533 0
-532 -533 0
127 532 533 0
c gate 534 -522 533 0
-522 -534 0
533 -534 0
522 -533 534 0
c gate 535 46 -126 0
46 -535 0
-126 -535 0
-46 126 535 0
c gate 536 44 126 0
44 -536 0
126 -536 0
-44 -126 536 0
c gate 537 -125 -536 0
-125 -537 0
-536 -537 0
125 536 537 0
c gate 538 -535 537 0
-535 -538 0
537 -538 0
535 -537 538 0
c gate 539 45 -126 0
45 -539 0
-126 -539 0
-45 126 539 0
c gate 540 43 126 0
43 -540 0
126 -540 0
-43 -126 540 0
c gate 541 125 -540 0
125 -541 0
-540 -541 0
-125 540 541 0
c gate 542 -539 541 0
-539 -542 0
541 -542 0
539 -541 542 0
c gate 543 -128 -542 0
-128 -543 0
-542 -543 0
128 542 543 0
c gate 544 -538 543 0
-538 -544 0
543 -544 0
538 -543 544 0
c gate 545 35 126 0
35 -545 0
126 -545 0
-35 -126 545 0
c gate 546 37 -126 0
37 -546 0
-126 -546 0
-37 126 546 0
c gate 547 125 -546 0
125 -547 0
-546 -547 0
-125 546 547 0
c gate 548 -545 547 0
-545 -548 0
547 -548 0
545 -547 548 0
c gate 549 36 126 0
36 -549 0
126 -549 0
-36 -126 549 0
c gate 550 38 -126 0
38 -550 0
-126 -550 0
-38 126 550 0
c gate 551 -125 -550 0
-125 -551 0
-550 -551 0
125 550 551 0
c gate 552 -549 551 0
-549 -552 0
551 -552 0
549 -551 552 0
c gate 553 128 -552 0
128 -553 0
-552 -553 0
-128 552 553 0
c gate 554 -548 553 0
-548 -554 0
553 -554 0
548 -553 554 0
c gate 555 127 -554 0
127 -555 0
-554 -555 0
-127 554 555 0
c gate 556 -544 555 0
-544 -556 0
555 -556 0
544 -555 556 0
c gate 557 -534 -556 0
-534 -557 0
-556 -557 0
534 556 557 0
c gate 558 130 -557 0
130 -558 0
-557 -558 0
-130 557 558 0
c gate 559 -129 -558 0
-129 -559 0
-558 -559 0
129 558 559 0
c gate 560 -512 559 0
-512 -560 0
559 -560 0
512 -559 560 0
c gate 561 131 -560 0
131 -561 0
-560 -561 0
-131 560 561 0
c gate 562 33 -126 0
33 -562 0
-126 -562 0
-33 126 562 0
c gate 563 31 126 0
31 -563 0
126 -563 0
-31 -126 563 0
c gate 564 125 -563 0
125 -564 0
-563 -564 0
-125 563 564 0
c gate 565 -562 564 0
-562 -565 0
564 -565 0
562 -564 565 0
c gate 566 32 126 0
32 -566 0
126 -566 0
-32 -126 566 0
c gate 567 34 -126 0
34 -567 0
-126 -567 0
-34 126 567 0
c gate 568 -125 -567 0
-125 -568 0
-567 -568 0
125 567 568 0
c gate 569 -566 568 0
-566 -569 0
568 -569 0
566 -568 569 0
c gate 570 -128 -569 0
-128 -570 0
-569 -570 0
128 569 570 0
c gate 571 -565 570 0
-565 -571 0
570 -571 0
565 -570 571 0
c gate 572 26 -126 0
26 -572 0
-126 -572 0
-26 126 572 0
c gate 573 24 126 0
24 -573 0
126 -573 0
-24 -126 573 0
c gate 574 -125 -573 0
-125 -574 0
-573 -574 0
125 573 574 0
c gate 575 -572 574 0
-572 -575 0
574 -575 0
572 -574 575 0
c gate 576 23 126 0
23 -576 0
126 -576 0
-23 -126 576 0
c gate 577 25 -126 0
25 -577 0
-126 -577 0
-25 126 577 0
c gate 578 125 -577 0
125 -578 0
-577 -578 0
-125 577 578 0
c gate 579 -576 578 0
-576 -579 0
578 -579 0
576 -578 579 0
c gate 580 128 -579 0
128 -580 0
-579 -580 0
-128 579 580 0
c gate 581 -575 580 0
-575 -581 0
580 -581 0
575 -580 581 0
c gate 582 -127 -581 0
-127 -582 0
-581 -582 0
127 581 582 0
c gate 583 -571 582 0
-571 -583 0
582 -583 0
571 -582 583 0
c gate 584 29 -126 0
29 -584 0
-126 -584 0
-29 126 584 0
c gate 585 27 126 0
27 -585 0
126 -585 0
-27 -126 585 0
c gate 586 125 -585 0
125 -586 0
-585 -586 0
-125 585 586 0
c gate 587 -584 586 0
-584 -587 0
586 -587 0
584 -586 587 0
c gate 588 28 126 0
28 -588 0
126 -588 0
-28 -126 588 0
c gate 589 30 -126 0
30 -589 0
-126 -589 0
-30 126 589 0
c gate 590 -125 -589 0
-125 -590 0
-589 -590 0
125 589 590 0
c gate 591 -588 590 0
-588 -591 0
590 -591 0
588 -590 591 0
c gate 592 -128 -591 0
-128 -592 0
-591 -592 0
128 591 592 0
c gate 593 -587 592 0
-587 -593 0
592 -593 0
587 -592 593 0
c gate 594 22 -126 0
22 -594 0
-126 -594 0
-22 126 594 0
c gate 595 20 126 0
20 -595 0
126 -595 0
-20 -126 595 0
c gate 596 -125 -595 0
-125 -596 0
-595 -596 0
125 595 596 0
c gate 597 -594 596 0
-594 -597 0
596 -597 0
594 -596 597 0
c gate 598 19 126 0
19 -598 0
126 -598 0
-19 -126 598 0
c gate 599 21 -126 0
21 -599 0
-126 -599 0
-21 126 599 0
c gate 600 125 -599 0
125 -600 0
-599 -600 0
-125 599 600 0
c gate 601 -598 600 0
-598 -601 0
600 -601 0
598 -600 601 0
c gate 602 128 -601 0
128 -602 0
-601 -602 0
-128 601 602 0
c gate 603 -597 602 0
-597 -603 0
602 -603 0
597 -602 603 0
c gate 604 127 -603 0
127 -604 0
-603 -604 0
-127 603 604 0
c gate 605 -593 604 0
-593 -605 0
604 -605 0
593 -604 605 0
c gate 606 -583 -605 0
-583 -606 0
-605 -606 0
583 605 606 0
c gate 607 130 -606 0
130 -607 0
-606 -607 0
-130 606 607 0
c gate 608 61 -126 0
61 -608 0
-126 -608 0
-61 126 608 0
c gate 609 59 126 0
59 -609 0
126 -609 0
-59 -126 609 0
c gate 610 125 -609 0
125 -610 0
-609 -610 0
-125 609 610 0
c gate 611 -608 610 0
-608 -611 0
610 -611 0
608 -610 611 0
c gate 612 60 126 0
60 -612 0
126 -612 0
-60 -126 612 0
c gate 613 62 -126 0
62 -613 0
-126 -613 0
-62 126 613 0
c gate 614 -125 -613 0
-125 -614 0
-613 -614 0
125 613 614 0
c gate 615 -612 614 0
-612 -615 0
614 -615 0
612 -614 615 0
c gate 616 -128 -615 0
-128 -616 0
-615 -616 0
128 615 616 0
c gate 617 -611 616 0
-611 -617 0
616 -617 0
611 -616 617 0
c gate 618 54 -126 0
54 -618 0
-126 -618 0
-54 126 618 0
c gate 619 52 126 0
52 -619 0
126 -619 0
-52 -126 619 0
c gate 620 -125 -619 0
-125 -620 0
-619 -620 0
125 619 620 0
c gate 621 -618 620 0
-618 -621 0
620 -621 0
618 -620 621 0
c gate 622 51 126 0
51 -622 0
126 -622 0
-51 -126 622 0
c gate 623 53 -126 0
53 -623 0
-126 -623 0
-53 126 623 0
c gate 624 125 -623 0
125 -624 0
-623 -624 0
-125 623 624 0
c gate 625 -622 624 0
-622 -625 0
624 -625 0
622 -624 625 0
c gate 626 128 -625 0
128 -626 0
-625 -626 0
-128 625 626 0
c gate 627 -621 626 0
-621 -627 0
626 -627 0
621 -626 627 0
c gate 628 127 -627 0
127 -628 0
-627 -628 0
-127 627 628 0
c gate 629 -617 628 0
-617 -629 0
628 -629 0
617 -628 629 0
c gate 630 -63 126 0
-63 -630 0
126 -630 0
63 -126 630 0
c gate 631 -65 -126 0
-65 -631 0
-126 -631 0
65 126 631 0
c gate 632 -630 -631 0
-630 -632 0
-631 -632 0
630 631 632 0
c gate 633 125 -632 0
125 -633 0
-632 -633 0
-125 632 633 0
c gate 634 -125 -239 0
-125 -634 0
-239 -634 0
125 239 634 0
c gate 635 -128 -634 0
-128 -635 0
-634 -635 0
128 634 635 0
c gate 636 -633 635 0
-633 -636 0
635 -636 0
633 -635 636 0
c gate 637 -56 126 0
-56 -637 0
126 -637 0
56 -126 637 0
c gate 638 -58 -126 0
-58 -638 0
-126 -638 0
58 126 638 0
c gate 639 -125 -638 0
-125 -639 0
-638 -639 0
125 638 639 0
c gate 640 -637 639 0
-637 -640 0
639 -640 0
637 -639 640 0
c gate 641 -57 -126 0
-57 -641 0
-126 -641 0
57 126 641 0
c gate 642 -55 126 0
-55 -642 0
126 -642 0
55 -126 642 0
c gate 643 125 -642 0
125 -643 0
-642 -643 0
-125 642 643 0
c gate 644 -641 643 0
-641 -644 0
643 -644 0
641 -643 644 0
c gate 645 -640 -644 0
-640 -645 0
-644 -645 0
640 644 645 0
c gate 646 128 -645 0
128 -646 0
-645 -646 0
-128 645 646 0
c gate 647 -127 -646 0
-127 -647 0
-646 -647 0
127 646 647 0
c gate 648 -636 647 0
-636 -648 0
647 -648 0
636 -647 648 0
c gate 649 -629 -648 0
-629 -649 0
-648 -649 0
629 648 649 0
c gate 650 -130 -649 0
-130 -650 0
-649 -650 0
130 649 650 0
c gate 651 129 -650 0
129 -651 0
-650 -651 0
-129 650 651 0
c gate 652 -607 651 0
-607 -652 0
651 -652 0
607 -651 652 0
c gate 653 561 652 0
561 -653 0
652 -653 0
-561 -652 653 0
c gate 654 -226 -653 0
-226 -654 0
-653 -654 0
226 653 654 0
c gate 655 -475 654 0
-475 -655 0
654 -655 0
475 -654 655 0
c gate 656 -131 225 0
-131 -656 0
225 -656 0
131 -225 656 0
c gate 657 655 -656 0
655 -657 0
-656 -657 0
-655 656 657 0
c gate 658 -88 -126 0
-88 -658 0
-126 -658 0
88 126 658 0
c gate 659 -86 126 0
-86 -659 0
126 -659 0
86 -126 659 0
c gate 660 125 -659 0
125 -660 0
-659 -660 0
-125 659 660 0
c gate 661 -658 660 0
-658 -661 0
660 -661 0
658 -660 661 0
c gate 662 -125 331 0
-125 -662 0
331 -662 0
125 -331 662 0
c gate 663 128 -662 0
128 -663 0
-662 -663 0
-128 662 663 0
c gate 664 -661 663 0
-661 -664 0
663 -664 0
661 -663 664 0
c gate 665 -96 -126 0
-96 -665 0
-126 -665 0
96 126 665 0
c gate 666 -94 126 0
-94 -666 0
126 -666 0
94 -126 666 0
c gate 667 125 -666 0
125 -667 0
-666 -667 0
-125 666 667 0
c gate 668 -665 667 0
-665 -668 0
667 -668 0
665 -667 668 0
c gate 669 -125 324 0
-125 -669 0
324 -669 0
125 -324 669 0
c gate 670 -128 -669 0
-128 -670 0
-669 -670 0
128 669 670 0
c gate 671 -668 670 0
-668 -671 0
670 -671 0
668 -670 671 0
c gate 672 -127 -671 0
-127 -672 0
-671 -672 0
127 671 672 0
c gate 673 -664 672 0
-664 -673 0
672 -673 0
664 -672 673 0
c gate 674 -92 -126 0
-92 -674 0
-126 -674 0
92 126 674 0
c gate 675 -90 126 0
-90 -675 0
126 -675 0
90 -126 675 0
c gate 676 125 -675 0
125 -676 0
-675 -676 0
-125 675 676 0
c gate 677 -674 676 0
-674 -677 0
676 -677 0
674 -676 677 0
c gate 678 -125 343 0
-125 -678 0
343 -678 0
125 -343 678 0
c gate 679 -128 -678 0
-128 -679 0
-678 -679 0
128 678 679 0
c gate 680 -677 679 0
-677 -680 0
679 -680 0
677 -679 680 0
c gate 681 -83 126 0
-83 -681 0
126 -681 0
83 -126 681 0
c gate 682 -85 -126 0
-85 -682 0
-126 -682 0
85 126 682 0
c gate 683 -125 -682 0
-125 -683 0
-682 -683 0
125 682 683 0
c gate 684 -681 683 0
-681 -684 0
683 -684 0
681 -683 684 0
c gate 685 -82 126 0
-82 -685 0
126 -685 0
82 -126 685 0
c gate 686 -84 -126 0
-84 -686 0
-126 -686 0
84 126 686 0
c gate 687 125 -686 0
125 -687 0
-686 -687 0
-125 686 687 0
c gate 688 -685 687 0
-685 -688 0
687 -688 0
685 -687 688 0
c gate 689 128 -688 0
128 -689 0
-688 -689 0
-128 688 689 0
c gate 690 -684 689 0
-684 -690 0
689 -690 0
684 -689 690 0
c gate 691 127 -690 0
127 -691 0
-690 -691 0
-127 690 691 0
c gate 692 -680 691 0
-680 -692 0
691 -692 0
680 -691 692 0
c gate 693 -673 -692 0
-673 -693 0
-692 -693 0
673 692 693 0
c gate 694 130 -693 0
130 -694 0
-693 -694 0
-130 693 694 0
c gate 695 -118 -126 0
-118 -695 0
-126 -695 0
118 126 695 0
c gate 696 -116 126 0
-116 -696 0
126 -696 0
116 -126 696 0
c gate 697 125 -696 0
125 -697 0
-696 -697 0
-125 696 697 0
c gate 698 -695 697 0
-695 -698 0
697 -698 0
695 -697 698 0
c gate 699 -125 364 0
-125 -699 0
364 -699 0
125 -364 699 0
c gate 700 128 -699 0
128 -700 0
-699 -700 0
-128 699 700 0
c gate 701 -698 700 0
-698 -701 0
700 -701 0
698 -700 701 0
c gate 702 -2 -126 0
-2 -702 0
-126 -702 0
2 126 702 0
c gate 703 -124 126 0
-124 -703 0
126 -703 0
124 -126 703 0
c gate 704 125 -703 0
125 -704 0
-703 -704 0
-125 703 704 0
c gate 705 -702 704 0
-702 -705 0
704 -705 0
702 -704 705 0
c gate 706 -125 374 0
-125 -706 0
374 -706 0
125 -374 706 0
c gate 707 -128 -706 0
-128 -707 0
-706 -707 0
128 706 707 0
c gate 708 -705 707 0
-705 -708 0
707 -708 0
705 -707 708 0
c gate 709 -127 -708 0
-127 -709 0
-708 -709 0
127 708 709 0
c gate 710 -701 709 0
-701 -710 0
709 -710 0
701 -709 710 0
c gate 711 -122 -126 0
-122 -711 0
-126 -711 0
122 126 711 0
c gate 712 -120 126 0
-120 -712 0
126 -712 0
120 -126 712 0
c gate 713 125 -712 0
125 -713 0
-712 -713 0
-125 712 713 0
c gate 714 -711 713 0
-711 -714 0
713 -714 0
711 -713 714 0
c gate 715 -125 386 0
-125 -715 0
386 -715 0
125 -386 715 0
c gate 716 -128 -715 0
-128 -716 0
-715 -716 0
128 715 716 0
c gate 717 -714 716 0
-714 -717 0
716 -717 0
714 -716 717 0
c gate 718 -113 126 0
-113 -718 0
126 -718 0
113 -126 718 0
c gate 719 -115 -126 0
-115 -719 0
-126 -719 0
115 126 719 0
c gate 720 -125 -719 0
-125 -720 0
-719 -720 0
125 719 720 0
c gate 721 -718 720 0
-718 -721 0
720 -721 0
718 -720 721 0
c gate 722 -112 126 0
-112 -722 0
126 -722 0
112 -126 722 0
c gate 723 -114 -126 0
-114 -723 0
-126 -723 0
114 126 723 0
c gate 724 125 -723 0
125 -724 0
-723 -724 0
-125 723 724 0
c gate 725 -722 724 0
-722 -725 0
724 -725 0
722 -724 725 0
c gate 726 128 -725 0
128 -726 0
-725 -726 0
-128 725 726 0
c gate 727 -721 726 0
-721 -727 0
726 -727 0
721 -726 727 0
c gate 728 127 -727 0
127 -728 0
-727 -728 0
-127 727 728 0
c gate 729 -717 728 0
-717 -729 0
728 -729 0
717 -728 729 0
c gate 730 -710 -729 0
-710 -730 0
-729 -730 0
710 729 730 0
c gate 731 -130 -730 0
-130 -731 0
-730 -731 0
130 730 731 0
c gate 732 129 -731 0
129 -732 0
-731 -732 0
-129 731 732 0
c gate 733 -694 732 0
-694 -733 0
732 -733 0
694 -732 733 0
c gate 734 131 733 0
131 -734 0
733 -734 0
-131 -733 734 0
c gate 735 131 320 0
131 -735 0
320 -735 0
-131 -320 735 0
c gate 736 -734 -735 0
-734 -736 0
-735 -736 0
734 735 736 0
c gate 737 -657 736 0
-657 -737 0
736 -737 0
657 -736 737 0
c gate 738 -410 737 0
-410 -738 0
737 -738 0
410 -737 738 0
c gate 739 -561 652 0
-561 -739 0
652 -739 0
561 -652 739 0
c gate 740 -131 474 0
-131 -740 0
474 -740 0
131 -474 740 0
c gate 741 -739 -740 0
-739 -741 0
-740 -741 0
739 740 741 0
c gate 742 -738 741 0
-738 -742 0
741 -742 0
738 -741 742 0
c gate 743 321 -742 0
321 -743 0
-742 -743 0
-321 742 743 0
c gate 744 -226 -743 0
-226 -744 0
-743 -744 0
226 743 744 0
c PO
-744 0
